
Gurobi 11.0.3 (linux64) logging started Mon 18 Nov 2024 08:15:57 PM CST

Set parameter LogFile to value "/home/dlcole3/graph_abstraction/hierarchical_graphs/git_storage/CS1/HP_low_reserves/gurobi_logs/serial/logfile_DA_8.log"
Set parameter TimeLimit to value 900

Gurobi 11.0.3 (linux64) logging started Mon 18 Nov 2024 08:15:58 PM CST

Set parameter LogFile to value "/home/dlcole3/graph_abstraction/hierarchical_graphs/git_storage/CS1/HP_low_reserves/gurobi_logs/serial/logfile_DA_8.log"
Gurobi Optimizer version 11.0.3 build v11.0.3rc0 (linux64 - "Ubuntu 18.04.3 LTS")

CPU model: Intel(R) Xeon(R) CPU E5-2698 v4 @ 2.20GHz, instruction set [SSE2|AVX|AVX2]
Thread count: 40 physical cores, 80 logical processors, using up to 20 threads

Optimize a model with 35850 rows, 31725 columns and 164765 nonzeros
Model fingerprint: 0x1bb93769
Variable types: 19950 continuous, 11775 integer (11775 binary)
Coefficient statistics:
  Matrix range     [5e-02, 2e+04]
  Objective range  [1e+00, 8e+04]
  Bounds range     [5e-02, 2e+05]
  RHS range        [5e-02, 7e+03]
Presolve removed 4389 rows and 6095 columns
Presolve time: 0.76s
Presolved: 31461 rows, 25630 columns, 145160 nonzeros
Variable types: 15155 continuous, 10475 integer (10475 binary)
Found heuristic solution: objective 1.192956e+09
Found heuristic solution: objective 1.044170e+09
Found heuristic solution: objective 6.986477e+08
Deterministic concurrent LP optimizer: primal and dual simplex
Showing primal log only...

Concurrent spin time: 0.00s

Solved with dual simplex

Use crossover to convert LP symmetric solution to basic solution...

Root relaxation: objective 1.302948e+07, 11846 iterations, 0.93 seconds (0.59 work units)

    Nodes    |    Current Node    |     Objective Bounds      |     Work
 Expl Unexpl |  Obj  Depth IntInf | Incumbent    BestBd   Gap | It/Node Time

     0     0 1.3029e+07    0  116 6.9865e+08 1.3029e+07  98.1%     -    3s
H    0     0                    6.968573e+08 1.3029e+07  98.1%     -    3s
H    0     0                    1.526710e+07 1.3029e+07  14.7%     -    3s
H    0     0                    1.525912e+07 1.3029e+07  14.6%     -    3s
H    0     0                    1.525906e+07 1.3030e+07  14.6%     -    3s
     0     0 1.3030e+07    0  150 1.5259e+07 1.3030e+07  14.6%     -    3s
     0     0 1.3031e+07    0  150 1.5259e+07 1.3031e+07  14.6%     -    4s
     0     0 1.3032e+07    0  150 1.5259e+07 1.3032e+07  14.6%     -    5s
H    0     0                    1.525886e+07 1.3032e+07  14.6%     -    5s
H    0     0                    1.334763e+07 1.3032e+07  2.36%     -    5s
     0     0 1.3032e+07    0  150 1.3348e+07 1.3032e+07  2.36%     -    5s
     0     2 1.3032e+07    0  150 1.3348e+07 1.3032e+07  2.36%     -    6s
    91   112 1.3042e+07    8  106 1.3348e+07 1.3037e+07  2.33%  73.0   10s
H  151   172                    1.324417e+07 1.3037e+07  1.56%  56.8   12s
H  169   172                    1.324327e+07 1.3037e+07  1.55%  54.4   12s
H  216   237                    1.308451e+07 1.3037e+07  0.36%  48.4   21s
H  217   237                    1.307372e+07 1.3037e+07  0.28%  48.3   21s
H  218   237                    1.307303e+07 1.3037e+07  0.27%  48.3   21s
H  221   237                    1.307205e+07 1.3037e+07  0.26%  48.0   21s
H  231   237                    1.307185e+07 1.3037e+07  0.26%  46.6   21s
   589   600 1.3056e+07   26   74 1.3072e+07 1.3037e+07  0.26%  41.5   30s
  1231  1080 1.3069e+07   49   54 1.3072e+07 1.3037e+07  0.26%  36.8   36s
* 1401  1180              64    1.307019e+07 1.3038e+07  0.25%  35.6   37s
  2129  1683 1.3046e+07   14  109 1.3070e+07 1.3039e+07  0.24%  34.8   40s
  2437  1802 1.3063e+07   31  100 1.3070e+07 1.3039e+07  0.24%  35.1   45s
H 2928  1983                    1.306862e+07 1.3040e+07  0.22%  33.4   51s
  2932  1968 1.3055e+07   18   95 1.3069e+07 1.3040e+07  0.22%  33.4   55s
  3093  2048 1.3062e+07   24   80 1.3069e+07 1.3040e+07  0.22%  38.5   60s
  3227  2128 1.3065e+07   27   86 1.3069e+07 1.3040e+07  0.22%  38.4   65s
  3931  2367 1.3059e+07   46   81 1.3069e+07 1.3040e+07  0.22%  38.7   71s
H 3932  2268                    1.306826e+07 1.3040e+07  0.22%  38.7   71s
H 3938  2172                    1.306820e+07 1.3040e+07  0.22%  38.7   71s
H 3944  2081                    1.306817e+07 1.3040e+07  0.22%  38.7   71s
  4916  2507 1.3057e+07   51   69 1.3068e+07 1.3040e+07  0.22%  37.6   81s
  6115  2943 1.3040e+07   29  104 1.3068e+07 1.3040e+07  0.22%  37.0   85s
  7168  3205 1.3055e+07   53   68 1.3068e+07 1.3040e+07  0.22%  36.7   90s
  8985  4442 1.3051e+07   49  100 1.3068e+07 1.3040e+07  0.22%  35.4   95s
 11644  6433 1.3066e+07   55   71 1.3068e+07 1.3044e+07  0.19%  34.8  100s
 14248  8217 1.3055e+07   35   92 1.3068e+07 1.3045e+07  0.18%  34.6  105s
 17007 10114 1.3065e+07   69   55 1.3068e+07 1.3045e+07  0.17%  34.6  111s
 18000 10137 1.3053e+07   42   76 1.3068e+07 1.3046e+07  0.17%  34.6  118s
H18018 10137                    1.306816e+07 1.3046e+07  0.17%  34.6  118s
 18025 10789 1.3053e+07   43   75 1.3068e+07 1.3046e+07  0.17%  34.6  120s
 20456 12098 1.3055e+07   33   90 1.3068e+07 1.3046e+07  0.17%  35.3  126s
 22701 13708     cutoff   42      1.3068e+07 1.3046e+07  0.17%  35.4  131s
 24005 14811 1.3064e+07   73   52 1.3068e+07 1.3046e+07  0.17%  35.5  135s
 27240 16418 1.3067e+07   50   65 1.3068e+07 1.3047e+07  0.16%  35.3  140s
 30077 17920     cutoff   52      1.3068e+07 1.3047e+07  0.16%  35.6  145s
 32533 19866 1.3057e+07   39   98 1.3068e+07 1.3047e+07  0.16%  35.6  152s
 34484 20721 1.3055e+07   35   85 1.3068e+07 1.3048e+07  0.16%  35.7  155s
 38246 23343 1.3066e+07   54   92 1.3068e+07 1.3048e+07  0.15%  36.0  172s
 40185 24339 1.3062e+07   64   85 1.3068e+07 1.3048e+07  0.15%  36.0  177s
 42071 25820 1.3061e+07   44   68 1.3068e+07 1.3048e+07  0.15%  35.9  182s
*42147 25820             105    1.306816e+07 1.3048e+07  0.15%  35.9  182s
 44628 26100 1.3057e+07   47   72 1.3068e+07 1.3049e+07  0.15%  36.2  188s
H44885 25563                    1.306732e+07 1.3049e+07  0.14%  36.2  188s
 45253 27123 1.3062e+07   56   73 1.3067e+07 1.3049e+07  0.14%  36.2  194s
 48456 27124 1.3065e+07   53  150 1.3067e+07 1.3049e+07  0.14%  36.3  285s
 48461 27127 1.3058e+07   41  278 1.3067e+07 1.3049e+07  0.14%  36.3  290s
 48467 27131 1.3063e+07   59  288 1.3067e+07 1.3049e+07  0.14%  36.3  295s
 48470 27133 1.3065e+07   61  314 1.3067e+07 1.3049e+07  0.14%  36.3  300s
 48474 27136 1.3067e+07   55  300 1.3067e+07 1.3049e+07  0.14%  36.3  306s
 48477 27138 1.3061e+07   37  327 1.3067e+07 1.3049e+07  0.14%  36.3  310s
 48480 27140 1.3055e+07   41  326 1.3067e+07 1.3049e+07  0.14%  36.3  315s
 48483 27142 1.3053e+07   33  339 1.3067e+07 1.3049e+07  0.14%  36.3  320s
 48485 27143 1.3064e+07   40  344 1.3067e+07 1.3049e+07  0.14%  36.3  326s
 48488 27148 1.3049e+07   25  251 1.3067e+07 1.3049e+07  0.14%  36.6  332s
 48530 27189 1.3049e+07   30  187 1.3067e+07 1.3049e+07  0.14%  36.7  335s
H48533 25830                    1.306732e+07 1.3049e+07  0.14%  36.7  335s
 48674 25900     cutoff   33      1.3067e+07 1.3049e+07  0.14%  36.9  340s
H48700 24620                    1.306732e+07 1.3049e+07  0.14%  36.9  341s
 48847 24682 1.3053e+07   37  111 1.3067e+07 1.3049e+07  0.14%  37.0  345s
 48881 24685 1.3053e+07   38  131 1.3067e+07 1.3049e+07  0.14%  37.1  355s
 49086 24777 1.3057e+07   43  146 1.3067e+07 1.3049e+07  0.14%  37.2  360s
 49594 24922 1.3062e+07   53   95 1.3067e+07 1.3049e+07  0.14%  37.3  365s
 50216 25152 1.3049e+07   35  113 1.3067e+07 1.3049e+07  0.14%  37.5  370s
 51206 25423 1.3054e+07   34  124 1.3067e+07 1.3049e+07  0.14%  37.7  375s
 52274 25714 1.3064e+07   36  107 1.3067e+07 1.3049e+07  0.14%  38.0  380s
 53546 26054 1.3053e+07   38  126 1.3067e+07 1.3049e+07  0.14%  38.2  385s
 54720 26513 1.3067e+07   78   86 1.3067e+07 1.3049e+07  0.14%  38.6  390s
 56667 26997 1.3050e+07   40  129 1.3067e+07 1.3049e+07  0.14%  38.9  397s
 58211 26867 1.3060e+07   52  110 1.3067e+07 1.3049e+07  0.14%  39.5  410s
H58221 25592                    1.306692e+07 1.3049e+07  0.14%  39.5  410s
 59134 26089 1.3067e+07   78   86 1.3067e+07 1.3049e+07  0.14%  39.7  415s
 60632 26652 1.3059e+07   51   85 1.3067e+07 1.3049e+07  0.14%  39.8  421s
 62635 27305 1.3060e+07   52   92 1.3067e+07 1.3049e+07  0.14%  39.9  427s
 63524 27483 1.3067e+07   65   55 1.3067e+07 1.3049e+07  0.14%  40.1  430s
 65699 28440 1.3052e+07   39  120 1.3067e+07 1.3049e+07  0.14%  40.3  436s
 67309 28728 1.3058e+07   55   75 1.3067e+07 1.3049e+07  0.14%  40.4  440s
 70271 29823 1.3053e+07   50  108 1.3067e+07 1.3049e+07  0.14%  40.7  448s
*71272 28211             113    1.306660e+07 1.3049e+07  0.14%  40.6  448s
 71870 29724 1.3063e+07   49  104 1.3067e+07 1.3049e+07  0.14%  40.6  455s
 75883 30076     cutoff   64      1.3067e+07 1.3049e+07  0.14%  40.6  462s
 77363 30810 1.3066e+07   49  120 1.3067e+07 1.3049e+07  0.14%  40.7  466s
 79481 31264 1.3064e+07   59   68 1.3067e+07 1.3049e+07  0.13%  40.6  470s
 81269 31422     cutoff   54      1.3067e+07 1.3049e+07  0.13%  40.7  475s
 82685 32343 1.3052e+07   40  120 1.3067e+07 1.3049e+07  0.13%  40.8  480s
 85014 32674 1.3065e+07   49  102 1.3067e+07 1.3049e+07  0.13%  40.9  486s
 87226 33219 1.3065e+07   69   75 1.3067e+07 1.3050e+07  0.13%  41.1  493s
H89303 31416                    1.306658e+07 1.3050e+07  0.13%  41.1  509s
H89313 30263                    1.306642e+07 1.3050e+07  0.13%  41.1  509s
H89324 29016                    1.306612e+07 1.3050e+07  0.13%  41.1  509s
 89336 30352 1.3060e+07   46  112 1.3066e+07 1.3050e+07  0.13%  41.1  523s
 91864 30873 1.3060e+07   38  153 1.3066e+07 1.3050e+07  0.12%  41.1  532s
 94572 31755 1.3052e+07   40  124 1.3066e+07 1.3050e+07  0.12%  41.4  540s
 98064 33334 1.3055e+07   43  137 1.3066e+07 1.3050e+07  0.12%  41.3  551s
 103434 32339 1.3063e+07   53  108 1.3066e+07 1.3051e+07  0.12%  41.5  557s
 105253 33457 1.3052e+07   43  129 1.3066e+07 1.3051e+07  0.12%  41.5  564s
 108333 34909 1.3065e+07   53   72 1.3066e+07 1.3051e+07  0.12%  41.5  571s
 111262 36495 1.3053e+07   39  107 1.3066e+07 1.3051e+07  0.12%  41.6  579s
 114737 38199 1.3059e+07   40  113 1.3066e+07 1.3051e+07  0.12%  41.8  586s
 117766 39635 1.3061e+07   57  107 1.3066e+07 1.3051e+07  0.11%  41.8  593s
 120656 41490 1.3064e+07   50   90 1.3066e+07 1.3051e+07  0.11%  41.9  600s
 124193 43579 1.3058e+07   49  114 1.3066e+07 1.3051e+07  0.11%  42.0  610s
 128351 45572 1.3066e+07   79   38 1.3066e+07 1.3052e+07  0.11%  42.0  617s
 132203 46420 1.3055e+07   43  132 1.3066e+07 1.3052e+07  0.11%  41.9  623s
 134090 47824 1.3062e+07   44  107 1.3066e+07 1.3052e+07  0.11%  41.9  631s
 137094 49662 1.3062e+07   42   92 1.3066e+07 1.3052e+07  0.11%  41.9  638s
 140730 51165 1.3053e+07   47   94 1.3066e+07 1.3052e+07  0.11%  41.9  645s
 143638 52855 1.3059e+07   46   94 1.3066e+07 1.3052e+07  0.11%  42.0  651s
 147122 54823 1.3063e+07   48   98 1.3066e+07 1.3052e+07  0.11%  42.0  661s
 151160 56234 1.3058e+07   41  110 1.3066e+07 1.3052e+07  0.11%  42.0  668s
 154225 57930 1.3058e+07   56   81 1.3066e+07 1.3052e+07  0.11%  42.1  675s
 157703 59463 1.3066e+07   48   96 1.3066e+07 1.3052e+07  0.11%  42.0  682s
 160724 60415 1.3065e+07   70   80 1.3066e+07 1.3052e+07  0.10%  42.0  687s
 162932 61862 1.3064e+07   51  116 1.3066e+07 1.3053e+07  0.10%  42.1  694s
 165976 63241 1.3057e+07   50  105 1.3066e+07 1.3053e+07  0.10%  42.1  709s
 169016 64907 1.3057e+07   46   94 1.3066e+07 1.3053e+07  0.10%  42.1  716s
 172366 66975 1.3061e+07   42   83 1.3066e+07 1.3053e+07  0.10%  42.1  725s
 176671 68494 1.3056e+07   54   98 1.3066e+07 1.3053e+07  0.10%  42.1  731s
 179572 69935 1.3066e+07   58   81 1.3066e+07 1.3053e+07  0.10%  42.1  738s
 182363 71249 1.3063e+07   56  106 1.3066e+07 1.3053e+07  0.10%  42.1  744s
 185250 72855     cutoff   50      1.3066e+07 1.3053e+07  0.10%  42.1  751s
 188696 74174 1.3063e+07   87   63 1.3066e+07 1.3053e+07  0.10%  42.1  758s

Cutting planes:
  Gomory: 54
  MIR: 7
  Flow cover: 4

Explored 191641 nodes (8079300 simplex iterations) in 758.96 seconds (754.09 work units)
Thread count was 20 (of 80 available processors)

Solution count 10: 1.30661e+07 1.30661e+07 1.30664e+07 ... 1.30682e+07

Optimal solution found (tolerance 1.00e-03)
Best objective 1.306612278617e+07, best bound 1.305310587314e+07, gap 0.0996%

User-callback calls 480777, time in user-callback 0.28 sec
